[runlim] version:		1.10
[runlim] time limit:		311040000 seconds
[runlim] real time limit:	900 seconds
[runlim] space limit:		8000 MB
[runlim] argv[0]:		python3
[runlim] argv[1]:		-u
[runlim] argv[2]:		mip.py
[runlim] argv[3]:		graph14
[runlim] start:			Fri Jan 16 23:53:19 2026
[runlim] main pid:		26036
Building MIP model...
[runlim] sample:		9.9 time, 10.1 real, 37.9 MB
[runlim] sample:		19.9 time, 20.1 real, 38.7 MB
[runlim] sample:		30.0 time, 30.1 real, 40.7 MB
[runlim] sample:		39.9 time, 40.1 real, 43.7 MB
[runlim] sample:		50.0 time, 50.1 real, 44.3 MB
[runlim] sample:		60.0 time, 60.1 real, 46.1 MB
[runlim] sample:		70.0 time, 70.1 real, 47.3 MB
[runlim] sample:		80.0 time, 80.1 real, 48.3 MB
[runlim] sample:		90.0 time, 90.1 real, 48.8 MB
[runlim] sample:		100.0 time, 100.1 real, 48.9 MB
[runlim] sample:		109.9 time, 110.1 real, 50.6 MB
[runlim] sample:		120.0 time, 120.1 real, 50.7 MB
[runlim] sample:		130.0 time, 130.1 real, 50.8 MB
[runlim] sample:		139.9 time, 140.1 real, 52.9 MB
[runlim] sample:		150.0 time, 150.1 real, 53.1 MB
[runlim] sample:		160.0 time, 160.1 real, 53.2 MB
[runlim] sample:		169.9 time, 170.1 real, 53.3 MB
[runlim] sample:		180.0 time, 180.1 real, 56.2 MB
[runlim] sample:		190.0 time, 190.1 real, 56.4 MB
[runlim] sample:		200.0 time, 200.1 real, 56.7 MB
[runlim] sample:		209.9 time, 210.1 real, 56.8 MB
[runlim] sample:		220.0 time, 220.1 real, 58.9 MB
Build time: 225.87s
Solving MIP (minimizing number of labels)...
Version identifier: 22.1.1.0 | 2022-11-28 | 9160aff4d
CPXPARAM_Read_DataCheck                          1
Legacy callback                                  i
Tried aggregator 2 times.
MIP Presolve eliminated 466213 rows and 0 columns.
MIP Presolve modified 49022 coefficients.
Aggregator did 18358 substitutions.
Reduced MIP has 49480 rows, 18402 columns, and 451370 nonzeros.
Reduced MIP has 18402 binaries, 0 generals, 0 SOSs, and 0 indicators.
Presolve time = 2.10 sec. (1753.85 ticks)
Found incumbent of value 44.000000 after 2.59 sec. (2412.39 ticks)
Probing time = 0.04 sec. (6.86 ticks)
Tried aggregator 1 time.
Detecting symmetries...
Reduced MIP has 49480 rows, 18402 columns, and 451370 nonzeros.
Reduced MIP has 18402 binaries, 0 generals, 0 SOSs, and 0 indicators.
Presolve time = 0.57 sec. (476.64 ticks)
Probing time = 0.04 sec. (6.80 ticks)
Clique table members: 49480.
MIP emphasis: balance optimality and feasibility.
MIP search method: dynamic search.
Parallel mode: deterministic, using up to 12 threads.
[runlim] sample:		234.9 time, 230.1 real, 515.7 MB
[runlim] sample:		282.3 time, 240.1 real, 1026.8 MB
Root relaxation solution time = 18.48 sec. (5949.92 ticks)

        Nodes                                         Cuts/
   Node  Left     Objective  IInf  Best Integer    Best Bound    ItCnt     Gap

*     0+    0                           44.0000        0.0000           100.00%
*     0+    0                           14.0000        0.0000           100.00%
      0     0        8.0000  2584       14.0000        8.0000    16324   42.86%

========== NEW INCUMBENT SOLUTION ==========
{1: 708, 2: 470, 3: 296, 4: 58, 5: 352, 6: 114, 7: 296, 8: 58, 9: 352, 10: 114, 11: 366, 12: 128, 13: 128, 14: 366, 15: 58, 16: 296, 17: 128, 18: 366, 19: 352, 20: 114, 21: 58, 22: 296, 23: 708, 24: 470, 25: 128, 26: 366, 27: 414, 28: 652, 29: 128, 30: 366, 31: 708, 32: 470, 33: 414, 34: 652, 35: 114, 36: 352, 37: 352, 38: 114, 39: 470, 40: 708, 41: 58, 42: 296, 43: 708, 44: 470, 45: 414, 46: 652, 47: 708, 48: 470, 49: 296, 50: 58, 51: 652, 52: 414, 53: 268, 54: 30, 55: 114, 56: 352, 57: 58, 58: 296, 59: 470, 60: 708, 61: 352, 62: 114, 63: 114, 64: 352, 65: 470, 66: 708, 67: 708, 68: 470, 69: 708, 70: 470, 71: 296, 72: 58, 73: 366, 74: 128, 75: 708, 76: 470, 77: 352, 78: 114, 79: 296, 80: 58, 81: 652, 82: 414, 83: 708, 84: 470, 85: 708, 86: 470, 87: 30, 88: 268, 89: 366, 90: 128, 91: 352, 92: 114, 93: 652, 94: 414, 95: 296, 96: 58, 97: 366, 98: 128, 99: 470, 100: 708, 101: 352, 102: 114, 103: 652, 104: 414, 105: 470, 106: 708, 107: 708, 108: 470, 109: 470, 110: 708, 111: 708, 112: 470, 113: 414, 114: 652, 115: 652, 116: 414, 117: 296, 118: 58, 119: 128, 120: 366, 121: 296, 122: 58, 123: 114, 124: 352, 125: 58, 126: 296, 127: 366, 128: 128, 129: 708, 130: 470, 131: 470, 132: 708, 133: 128, 134: 366, 135: 778, 136: 540, 137: 268, 138: 30, 139: 114, 140: 352, 141: 708, 142: 470, 143: 708, 144: 470, 145: 352, 146: 114, 147: 366, 148: 128, 149: 708, 150: 470, 151: 652, 152: 414, 153: 470, 154: 708, 155: 470, 156: 708, 157: 470, 158: 708, 159: 470, 160: 708, 161: 128, 162: 366, 163: 58, 164: 296, 165: 366, 166: 128, 167: 652, 168: 414, 169: 366, 170: 128, 171: 708, 172: 470, 173: 114, 174: 352, 175: 708, 176: 470, 177: 352, 178: 114, 179: 58, 180: 296, 181: 708, 182: 470, 183: 414, 184: 652, 185: 296, 186: 58, 187: 30, 188: 268, 189: 268, 190: 30, 191: 652, 192: 414, 193: 352, 194: 114, 195: 296, 196: 58, 197: 114, 198: 352, 199: 652, 200: 414, 201: 652, 202: 414, 203: 708, 204: 470, 205: 470, 206: 708, 207: 366, 208: 128, 209: 268, 210: 30, 211: 114, 212: 352, 213: 58, 214: 296, 215: 296, 216: 58, 217: 114, 218: 352, 219: 366, 220: 128, 221: 366, 222: 128, 223: 652, 224: 414, 225: 352, 226: 114, 227: 58, 228: 296, 229: 778, 230: 540, 231: 652, 232: 414, 233: 470, 234: 708, 235: 58, 236: 296, 237: 114, 238: 352, 239: 58, 240: 296, 241: 414, 242: 652, 243: 30, 244: 268, 245: 470, 246: 708, 247: 708, 248: 470, 249: 414, 250: 652, 251: 652, 252: 414, 253: 652, 254: 414, 255: 708, 256: 470, 257: 352, 258: 114, 259: 652, 260: 414, 261: 128, 262: 366, 263: 708, 264: 470, 265: 114, 266: 352, 267: 268, 268: 30, 269: 268, 270: 30, 271: 366, 272: 128, 273: 58, 274: 296, 275: 296, 276: 58, 277: 30, 278: 268, 279: 366, 280: 128, 281: 470, 282: 708, 283: 366, 284: 128, 285: 58, 286: 296, 287: 652, 288: 414, 289: 708, 290: 470, 291: 296, 292: 58, 293: 114, 294: 352, 295: 58, 296: 296, 297: 114, 298: 352, 299: 470, 300: 708, 301: 114, 302: 352, 303: 128, 304: 366, 305: 58, 306: 296, 307: 296, 308: 58, 309: 414, 310: 652, 311: 296, 312: 58, 313: 58, 314: 296, 315: 708, 316: 470, 317: 708, 318: 470, 319: 708, 320: 470, 321: 268, 322: 30, 323: 414, 324: 652, 325: 470, 326: 708, 327: 708, 328: 470, 329: 114, 330: 352, 331: 366, 332: 128, 333: 296, 334: 58, 335: 470, 336: 708, 337: 58, 338: 296, 339: 470, 340: 708, 341: 352, 342: 114, 343: 58, 344: 296, 345: 296, 346: 58, 347: 296, 348: 58, 349: 58, 350: 296, 351: 296, 352: 58, 353: 470, 354: 708, 355: 128, 356: 366, 357: 114, 358: 352, 359: 652, 360: 414, 361: 128, 362: 366, 363: 296, 364: 58, 365: 114, 366: 352, 367: 708, 368: 470, 369: 708, 370: 470, 371: 414, 372: 652, 373: 352, 374: 114, 375: 114, 376: 352, 377: 296, 378: 58, 379: 58, 380: 296, 381: 58, 382: 296, 383: 268, 384: 30, 385: 352, 386: 114, 387: 366, 388: 128, 389: 128, 390: 366, 391: 470, 392: 708, 393: 58, 394: 296, 395: 366, 396: 128, 397: 352, 398: 114, 399: 652, 400: 414, 401: 652, 402: 414, 403: 708, 404: 470, 405: 296, 406: 58, 407: 114, 408: 352, 409: 352, 410: 114, 411: 30, 412: 268, 413: 128, 414: 366, 415: 114, 416: 352, 417: 366, 418: 128, 419: 708, 420: 470, 421: 470, 422: 708, 423: 470, 424: 708, 425: 470, 426: 708, 427: 30, 428: 268, 429: 58, 430: 296, 431: 58, 432: 296, 433: 58, 434: 296, 435: 414, 436: 652, 437: 708, 438: 470, 439: 128, 440: 366, 441: 296, 442: 58, 443: 470, 444: 708, 445: 58, 446: 296, 447: 352, 448: 114, 449: 708, 450: 470, 451: 470, 452: 708, 453: 352, 454: 114, 455: 128, 456: 366, 457: 366, 458: 128, 459: 268, 460: 30, 461: 296, 462: 58, 463: 708, 464: 470, 465: 652, 466: 414, 467: 296, 468: 58, 469: 708, 470: 470, 471: 366, 472: 128, 473: 652, 474: 414, 475: 470, 476: 708, 477: 470, 478: 708, 479: 366, 480: 128, 481: 366, 482: 128, 483: 114, 484: 352, 485: 652, 486: 414, 487: 708, 488: 470, 489: 114, 490: 352, 491: 366, 492: 128, 493: 708, 494: 470, 495: 366, 496: 128, 497: 128, 498: 366, 499: 114, 500: 352, 501: 352, 502: 114, 503: 114, 504: 352, 505: 268, 506: 30, 507: 58, 508: 296, 509: 708, 510: 470, 511: 296, 512: 58, 513: 296, 514: 58, 515: 708, 516: 470, 517: 470, 518: 708, 519: 128, 520: 366, 521: 708, 522: 470, 523: 352, 524: 114, 525: 470, 526: 708, 527: 470, 528: 708, 529: 114, 530: 352, 531: 366, 532: 128, 533: 366, 534: 128, 535: 30, 536: 268, 537: 366, 538: 128, 539: 352, 540: 114, 541: 58, 542: 296, 543: 268, 544: 30, 545: 708, 546: 470, 547: 708, 548: 470, 549: 128, 550: 366, 551: 268, 552: 30, 553: 296, 554: 58, 555: 652, 556: 414, 557: 58, 558: 296, 559: 58, 560: 296, 561: 114, 562: 352, 563: 352, 564: 114, 565: 128, 566: 366, 567: 114, 568: 352, 569: 352, 570: 114, 571: 296, 572: 58, 573: 352, 574: 114, 575: 296, 576: 58, 577: 366, 578: 128, 579: 470, 580: 708, 581: 114, 582: 352, 583: 128, 584: 366, 585: 414, 586: 652, 587: 58, 588: 296, 589: 296, 590: 58, 591: 296, 592: 58, 593: 128, 594: 366, 595: 268, 596: 30, 597: 58, 598: 296, 599: 708, 600: 470, 601: 296, 602: 58, 603: 470, 604: 708, 605: 708, 606: 470, 607: 708, 608: 470, 609: 652, 610: 414, 611: 128, 612: 366, 613: 58, 614: 296, 615: 540, 616: 778, 617: 296, 618: 58, 619: 296, 620: 58, 621: 128, 622: 366, 623: 470, 624: 708, 625: 366, 626: 128, 627: 366, 628: 128, 629: 652, 630: 414, 631: 296, 632: 58, 633: 366, 634: 128, 635: 470, 636: 708, 637: 114, 638: 352, 639: 268, 640: 30, 641: 470, 642: 708, 643: 352, 644: 114, 645: 268, 646: 30, 647: 414, 648: 652, 649: 414, 650: 652, 651: 58, 652: 296, 653: 352, 654: 114, 655: 652, 656: 414, 657: 114, 658: 352, 659: 114, 660: 352, 661: 296, 662: 58, 663: 470, 664: 708, 665: 470, 666: 708, 667: 58, 668: 296, 669: 30, 670: 268, 671: 114, 672: 352, 673: 58, 674: 296, 675: 708, 676: 470, 677: 414, 678: 652, 679: 268, 680: 30, 681: 30, 682: 268, 683: 114, 684: 352, 685: 58, 686: 296, 687: 708, 688: 470, 689: 652, 690: 414, 691: 128, 692: 366, 693: 30, 694: 268, 695: 366, 696: 128, 697: 470, 698: 708, 699: 470, 700: 708, 701: 414, 702: 652, 703: 58, 704: 296, 705: 268, 706: 30, 707: 470, 708: 708, 709: 296, 710: 58, 711: 128, 712: 366, 713: 114, 714: 352, 715: 470, 716: 708, 717: 352, 718: 114, 719: 58, 720: 296, 721: 268, 722: 30, 723: 708, 724: 470, 725: 652, 726: 414, 727: 352, 728: 114, 729: 296, 730: 58, 731: 652, 732: 414, 733: 128, 734: 366, 735: 352, 736: 114, 737: 470, 738: 708, 739: 652, 740: 414, 741: 366, 742: 128, 743: 366, 744: 128, 745: 708, 746: 470, 747: 30, 748: 268, 749: 366, 750: 128, 751: 30, 752: 268, 753: 470, 754: 708, 755: 128, 756: 366, 757: 352, 758: 114, 759: 352, 760: 114, 761: 296, 762: 58, 763: 128, 764: 366, 765: 296, 766: 58, 767: 58, 768: 296, 769: 708, 770: 470, 771: 366, 772: 128, 773: 268, 774: 30, 775: 352, 776: 114, 777: 366, 778: 128, 779: 30, 780: 268, 781: 366, 782: 128, 783: 352, 784: 114, 785: 114, 786: 352, 787: 114, 788: 352, 789: 470, 790: 708, 791: 708, 792: 470, 793: 708, 794: 470, 795: 708, 796: 470, 797: 296, 798: 58, 799: 30, 800: 268, 801: 470, 802: 708, 803: 58, 804: 296, 805: 128, 806: 366, 807: 268, 808: 30, 809: 470, 810: 708, 811: 708, 812: 470, 813: 128, 814: 366, 815: 114, 816: 352, 817: 128, 818: 366, 819: 268, 820: 30, 821: 352, 822: 114, 823: 708, 824: 470, 825: 58, 826: 296, 827: 708, 828: 470, 829: 296, 830: 58, 831: 296, 832: 58, 833: 540, 834: 778, 835: 268, 836: 30, 837: 366, 838: 128, 839: 58, 840: 296, 841: 30, 842: 268, 843: 470, 844: 708, 845: 366, 846: 128, 847: 708, 848: 470, 849: 352, 850: 114, 851: 128, 852: 366, 853: 296, 854: 58, 855: 30, 856: 268, 857: 540, 858: 778, 859: 30, 860: 268, 861: 30, 862: 268, 863: 366, 864: 128, 865: 414, 866: 652, 867: 652, 868: 414, 869: 30, 870: 268, 871: 470, 872: 708, 873: 114, 874: 352, 875: 296, 876: 58, 877: 352, 878: 114, 879: 58, 880: 296, 881: 30, 882: 268, 883: 352, 884: 114, 885: 778, 886: 540, 887: 128, 888: 366, 889: 30, 890: 268, 891: 652, 892: 414, 893: 128, 894: 366, 895: 114, 896: 352, 897: 652, 898: 414, 899: 30, 900: 268, 901: 470, 902: 708, 903: 30, 904: 268, 905: 414, 906: 652, 907: 708, 908: 470, 909: 58, 910: 296, 911: 540, 912: 778, 913: 652, 914: 414, 915: 708, 916: 470}
Number of labels used: 14
Total time: 247.84 sec
Memory: 556.98 MB
=============================================

========== NEW INCUMBENT SOLUTION ==========
{1: 708, 2: 470, 3: 296, 4: 58, 5: 352, 6: 114, 7: 296, 8: 58, 9: 352, 10: 114, 11: 366, 12: 128, 13: 128, 14: 366, 15: 58, 16: 296, 17: 128, 18: 366, 19: 352, 20: 114, 21: 58, 22: 296, 23: 708, 24: 470, 25: 128, 26: 366, 27: 414, 28: 652, 29: 128, 30: 366, 31: 708, 32: 470, 33: 414, 34: 652, 35: 114, 36: 352, 37: 352, 38: 114, 39: 470, 40: 708, 41: 58, 42: 296, 43: 708, 44: 470, 45: 414, 46: 652, 47: 708, 48: 470, 49: 296, 50: 58, 51: 652, 52: 414, 53: 268, 54: 30, 55: 114, 56: 352, 57: 58, 58: 296, 59: 470, 60: 708, 61: 352, 62: 114, 63: 114, 64: 352, 65: 470, 66: 708, 67: 708, 68: 470, 69: 708, 70: 470, 71: 296, 72: 58, 73: 366, 74: 128, 75: 708, 76: 470, 77: 352, 78: 114, 79: 296, 80: 58, 81: 652, 82: 414, 83: 708, 84: 470, 85: 708, 86: 470, 87: 30, 88: 268, 89: 366, 90: 128, 91: 352, 92: 114, 93: 652, 94: 414, 95: 296, 96: 58, 97: 366, 98: 128, 99: 470, 100: 708, 101: 352, 102: 114, 103: 652, 104: 414, 105: 470, 106: 708, 107: 708, 108: 470, 109: 470, 110: 708, 111: 708, 112: 470, 113: 414, 114: 652, 115: 652, 116: 414, 117: 296, 118: 58, 119: 128, 120: 366, 121: 296, 122: 58, 123: 114, 124: 352, 125: 58, 126: 296, 127: 366, 128: 128, 129: 708, 130: 470, 131: 470, 132: 708, 133: 128, 134: 366, 135: 778, 136: 540, 137: 268, 138: 30, 139: 114, 140: 352, 141: 708, 142: 470, 143: 708, 144: 470, 145: 352, 146: 114, 147: 366, 148: 128, 149: 708, 150: 470, 151: 652, 152: 414, 153: 470, 154: 708, 155: 470, 156: 708, 157: 470, 158: 708, 159: 470, 160: 708, 161: 128, 162: 366, 163: 58, 164: 296, 165: 366, 166: 128, 167: 652, 168: 414, 169: 366, 170: 128, 171: 708, 172: 470, 173: 114, 174: 352, 175: 708, 176: 470, 177: 352, 178: 114, 179: 58, 180: 296, 181: 708, 182: 470, 183: 414, 184: 652, 185: 296, 186: 58, 187: 30, 188: 268, 189: 268, 190: 30, 191: 652, 192: 414, 193: 352, 194: 114, 195: 296, 196: 58, 197: 114, 198: 352, 199: 652, 200: 414, 201: 652, 202: 414, 203: 708, 204: 470, 205: 470, 206: 708, 207: 366, 208: 128, 209: 268, 210: 30, 211: 114, 212: 352, 213: 58, 214: 296, 215: 296, 216: 58, 217: 114, 218: 352, 219: 366, 220: 128, 221: 366, 222: 128, 223: 652, 224: 414, 225: 352, 226: 114, 227: 58, 228: 296, 229: 778, 230: 540, 231: 652, 232: 414, 233: 470, 234: 708, 235: 58, 236: 296, 237: 114, 238: 352, 239: 58, 240: 296, 241: 414, 242: 652, 243: 30, 244: 268, 245: 470, 246: 708, 247: 708, 248: 470, 249: 414, 250: 652, 251: 652, 252: 414, 253: 652, 254: 414, 255: 708, 256: 470, 257: 352, 258: 114, 259: 652, 260: 414, 261: 128, 262: 366, 263: 708, 264: 470, 265: 114, 266: 352, 267: 268, 268: 30, 269: 268, 270: 30, 271: 366, 272: 128, 273: 58, 274: 296, 275: 296, 276: 58, 277: 30, 278: 268, 279: 366, 280: 128, 281: 470, 282: 708, 283: 366, 284: 128, 285: 58, 286: 296, 287: 652, 288: 414, 289: 708, 290: 470, 291: 296, 292: 58, 293: 114, 294: 352, 295: 58, 296: 296, 297: 114, 298: 352, 299: 470, 300: 708, 301: 114, 302: 352, 303: 128, 304: 366, 305: 58, 306: 296, 307: 296, 308: 58, 309: 414, 310: 652, 311: 296, 312: 58, 313: 58, 314: 296, 315: 708, 316: 470, 317: 708, 318: 470, 319: 708, 320: 470, 321: 268, 322: 30, 323: 414, 324: 652, 325: 470, 326: 708, 327: 708, 328: 470, 329: 114, 330: 352, 331: 366, 332: 128, 333: 296, 334: 58, 335: 470, 336: 708, 337: 58, 338: 296, 339: 470, 340: 708, 341: 352, 342: 114, 343: 58, 344: 296, 345: 296, 346: 58, 347: 296, 348: 58, 349: 58, 350: 296, 351: 296, 352: 58, 353: 470, 354: 708, 355: 128, 356: 366, 357: 114, 358: 352, 359: 652, 360: 414, 361: 128, 362: 366, 363: 296, 364: 58, 365: 114, 366: 352, 367: 708, 368: 470, 369: 708, 370: 470, 371: 414, 372: 652, 373: 352, 374: 114, 375: 114, 376: 352, 377: 296, 378: 58, 379: 58, 380: 296, 381: 58, 382: 296, 383: 268, 384: 30, 385: 352, 386: 114, 387: 366, 388: 128, 389: 128, 390: 366, 391: 470, 392: 708, 393: 58, 394: 296, 395: 366, 396: 128, 397: 352, 398: 114, 399: 652, 400: 414, 401: 652, 402: 414, 403: 708, 404: 470, 405: 296, 406: 58, 407: 114, 408: 352, 409: 352, 410: 114, 411: 30, 412: 268, 413: 128, 414: 366, 415: 114, 416: 352, 417: 366, 418: 128, 419: 708, 420: 470, 421: 470, 422: 708, 423: 470, 424: 708, 425: 470, 426: 708, 427: 30, 428: 268, 429: 58, 430: 296, 431: 58, 432: 296, 433: 58, 434: 296, 435: 414, 436: 652, 437: 708, 438: 470, 439: 128, 440: 366, 441: 296, 442: 58, 443: 470, 444: 708, 445: 58, 446: 296, 447: 352, 448: 114, 449: 708, 450: 470, 451: 470, 452: 708, 453: 352, 454: 114, 455: 128, 456: 366, 457: 366, 458: 128, 459: 268, 460: 30, 461: 296, 462: 58, 463: 708, 464: 470, 465: 652, 466: 414, 467: 296, 468: 58, 469: 708, 470: 470, 471: 366, 472: 128, 473: 652, 474: 414, 475: 470, 476: 708, 477: 470, 478: 708, 479: 366, 480: 128, 481: 366, 482: 128, 483: 114, 484: 352, 485: 652, 486: 414, 487: 708, 488: 470, 489: 114, 490: 352, 491: 366, 492: 128, 493: 708, 494: 470, 495: 366, 496: 128, 497: 128, 498: 366, 499: 114, 500: 352, 501: 352, 502: 114, 503: 114, 504: 352, 505: 268, 506: 30, 507: 58, 508: 296, 509: 708, 510: 470, 511: 296, 512: 58, 513: 296, 514: 58, 515: 708, 516: 470, 517: 470, 518: 708, 519: 128, 520: 366, 521: 708, 522: 470, 523: 352, 524: 114, 525: 470, 526: 708, 527: 470, 528: 708, 529: 114, 530: 352, 531: 366, 532: 128, 533: 366, 534: 128, 535: 30, 536: 268, 537: 366, 538: 128, 539: 352, 540: 114, 541: 58, 542: 296, 543: 268, 544: 30, 545: 708, 546: 470, 547: 708, 548: 470, 549: 128, 550: 366, 551: 268, 552: 30, 553: 296, 554: 58, 555: 652, 556: 414, 557: 58, 558: 296, 559: 58, 560: 296, 561: 114, 562: 352, 563: 352, 564: 114, 565: 128, 566: 366, 567: 114, 568: 352, 569: 352, 570: 114, 571: 296, 572: 58, 573: 352, 574: 114, 575: 296, 576: 58, 577: 366, 578: 128, 579: 470, 580: 708, 581: 114, 582: 352, 583: 128, 584: 366, 585: 414, 586: 652, 587: 58, 588: 296, 589: 296, 590: 58, 591: 296, 592: 58, 593: 128, 594: 366, 595: 268, 596: 30, 597: 58, 598: 296, 599: 708, 600: 470, 601: 296, 602: 58, 603: 470, 604: 708, 605: 708, 606: 470, 607: 708, 608: 470, 609: 652, 610: 414, 611: 128, 612: 366, 613: 58, 614: 296, 615: 540, 616: 778, 617: 296, 618: 58, 619: 296, 620: 58, 621: 128, 622: 366, 623: 470, 624: 708, 625: 366, 626: 128, 627: 366, 628: 128, 629: 652, 630: 414, 631: 296, 632: 58, 633: 366, 634: 128, 635: 470, 636: 708, 637: 114, 638: 352, 639: 268, 640: 30, 641: 470, 642: 708, 643: 352, 644: 114, 645: 268, 646: 30, 647: 414, 648: 652, 649: 414, 650: 652, 651: 58, 652: 296, 653: 352, 654: 114, 655: 652, 656: 414, 657: 114, 658: 352, 659: 114, 660: 352, 661: 296, 662: 58, 663: 470, 664: 708, 665: 470, 666: 708, 667: 58, 668: 296, 669: 30, 670: 268, 671: 114, 672: 352, 673: 58, 674: 296, 675: 708, 676: 470, 677: 414, 678: 652, 679: 268, 680: 30, 681: 30, 682: 268, 683: 114, 684: 352, 685: 58, 686: 296, 687: 708, 688: 470, 689: 652, 690: 414, 691: 128, 692: 366, 693: 30, 694: 268, 695: 366, 696: 128, 697: 470, 698: 708, 699: 470, 700: 708, 701: 414, 702: 652, 703: 58, 704: 296, 705: 268, 706: 30, 707: 470, 708: 708, 709: 296, 710: 58, 711: 128, 712: 366, 713: 114, 714: 352, 715: 470, 716: 708, 717: 352, 718: 114, 719: 58, 720: 296, 721: 268, 722: 30, 723: 708, 724: 470, 725: 652, 726: 414, 727: 352, 728: 114, 729: 296, 730: 58, 731: 652, 732: 414, 733: 128, 734: 366, 735: 352, 736: 114, 737: 470, 738: 708, 739: 652, 740: 414, 741: 366, 742: 128, 743: 366, 744: 128, 745: 708, 746: 470, 747: 30, 748: 268, 749: 366, 750: 128, 751: 30, 752: 268, 753: 470, 754: 708, 755: 128, 756: 366, 757: 352, 758: 114, 759: 352, 760: 114, 761: 296, 762: 58, 763: 128, 764: 366, 765: 296, 766: 58, 767: 58, 768: 296, 769: 708, 770: 470, 771: 366, 772: 128, 773: 268, 774: 30, 775: 352, 776: 114, 777: 366, 778: 128, 779: 30, 780: 268, 781: 366, 782: 128, 783: 352, 784: 114, 785: 114, 786: 352, 787: 114, 788: 352, 789: 470, 790: 708, 791: 708, 792: 470, 793: 708, 794: 470, 795: 708, 796: 470, 797: 296, 798: 58, 799: 30, 800: 268, 801: 470, 802: 708, 803: 58, 804: 296, 805: 128, 806: 366, 807: 268, 808: 30, 809: 470, 810: 708, 811: 708, 812: 470, 813: 128, 814: 366, 815: 114, 816: 352, 817: 128, 818: 366, 819: 268, 820: 30, 821: 352, 822: 114, 823: 708, 824: 470, 825: 58, 826: 296, 827: 708, 828: 470, 829: 296, 830: 58, 831: 296, 832: 58, 833: 540, 834: 778, 835: 268, 836: 30, 837: 366, 838: 128, 839: 58, 840: 296, 841: 30, 842: 268, 843: 470, 844: 708, 845: 366, 846: 128, 847: 708, 848: 470, 849: 352, 850: 114, 851: 128, 852: 366, 853: 296, 854: 58, 855: 30, 856: 268, 857: 540, 858: 778, 859: 30, 860: 268, 861: 30, 862: 268, 863: 366, 864: 128, 865: 414, 866: 652, 867: 652, 868: 414, 869: 30, 870: 268, 871: 470, 872: 708, 873: 114, 874: 352, 875: 296, 876: 58, 877: 352, 878: 114, 879: 58, 880: 296, 881: 30, 882: 268, 883: 352, 884: 114, 885: 778, 886: 540, 887: 128, 888: 366, 889: 30, 890: 268, 891: 652, 892: 414, 893: 128, 894: 366, 895: 114, 896: 352, 897: 652, 898: 414, 899: 30, 900: 268, 901: 470, 902: 708, 903: 30, 904: 268, 905: 414, 906: 652, 907: 708, 908: 470, 909: 58, 910: 296, 911: 540, 912: 778, 913: 652, 914: 414, 915: 708, 916: 470}
Number of labels used: 14
Total time: 247.86 sec
Memory: 560.98 MB
=============================================
[runlim] sample:		364.4 time, 250.1 real, 640.5 MB
[runlim] sample:		384.5 time, 260.1 real, 675.6 MB
[runlim] sample:		404.4 time, 270.1 real, 677.1 MB
[runlim] sample:		424.4 time, 280.1 real, 677.7 MB
[runlim] sample:		444.5 time, 290.1 real, 656.8 MB
[runlim] sample:		464.3 time, 300.1 real, 658.6 MB
[runlim] sample:		484.4 time, 310.1 real, 659.1 MB
[runlim] sample:		504.4 time, 320.1 real, 659.5 MB
[runlim] sample:		524.4 time, 330.1 real, 659.8 MB
[runlim] sample:		544.3 time, 340.1 real, 660.0 MB
[runlim] sample:		564.4 time, 350.1 real, 660.3 MB
[runlim] sample:		584.4 time, 360.1 real, 660.4 MB
[runlim] sample:		604.3 time, 370.1 real, 660.4 MB
[runlim] sample:		624.4 time, 380.1 real, 660.5 MB
[runlim] sample:		644.5 time, 390.1 real, 672.4 MB
[runlim] sample:		664.3 time, 400.1 real, 672.4 MB
[runlim] sample:		684.4 time, 410.1 real, 672.5 MB
[runlim] sample:		704.5 time, 420.1 real, 672.6 MB
[runlim] sample:		724.3 time, 430.1 real, 672.6 MB
[runlim] sample:		744.4 time, 440.1 real, 672.6 MB
[runlim] sample:		764.5 time, 450.1 real, 672.6 MB
[runlim] sample:		784.4 time, 460.1 real, 672.6 MB
[runlim] sample:		804.4 time, 470.1 real, 672.6 MB
[runlim] sample:		824.4 time, 480.1 real, 672.6 MB
[runlim] sample:		844.4 time, 490.1 real, 672.6 MB
[runlim] sample:		864.4 time, 500.1 real, 672.6 MB
[runlim] sample:		884.4 time, 510.1 real, 672.6 MB
[runlim] sample:		904.5 time, 520.1 real, 672.6 MB
[runlim] sample:		924.4 time, 530.1 real, 672.6 MB
[runlim] sample:		944.4 time, 540.1 real, 672.6 MB
[runlim] sample:		964.5 time, 550.1 real, 672.6 MB
[runlim] sample:		984.4 time, 560.1 real, 672.6 MB
[runlim] sample:		1004.4 time, 570.1 real, 672.6 MB
[runlim] sample:		1024.5 time, 580.1 real, 672.6 MB
[runlim] sample:		1044.6 time, 590.1 real, 672.6 MB
[runlim] sample:		1064.7 time, 600.1 real, 672.6 MB
[runlim] sample:		1084.7 time, 610.1 real, 672.6 MB
[runlim] sample:		1104.5 time, 620.1 real, 672.6 MB
[runlim] sample:		1124.4 time, 630.1 real, 672.6 MB
[runlim] sample:		1144.4 time, 640.1 real, 672.6 MB
[runlim] sample:		1164.4 time, 650.1 real, 672.6 MB
[runlim] sample:		1184.2 time, 660.1 real, 672.6 MB
[runlim] sample:		1204.3 time, 670.1 real, 672.6 MB
[runlim] sample:		1224.4 time, 680.1 real, 672.6 MB
[runlim] sample:		1244.3 time, 690.1 real, 672.6 MB
[runlim] sample:		1264.3 time, 700.1 real, 672.6 MB
[runlim] sample:		1284.4 time, 710.1 real, 672.6 MB
[runlim] sample:		1304.3 time, 720.1 real, 672.6 MB
[runlim] sample:		1324.3 time, 730.1 real, 672.6 MB
[runlim] sample:		1344.4 time, 740.1 real, 672.6 MB
[runlim] sample:		1364.3 time, 750.1 real, 672.6 MB
[runlim] sample:		1384.3 time, 760.1 real, 672.8 MB
[runlim] sample:		1404.4 time, 770.1 real, 672.8 MB
[runlim] sample:		1424.4 time, 780.1 real, 672.8 MB
[runlim] sample:		1444.3 time, 790.1 real, 672.9 MB
[runlim] sample:		1464.4 time, 800.1 real, 672.9 MB
[runlim] sample:		1484.5 time, 810.1 real, 672.9 MB
[runlim] sample:		1504.3 time, 820.1 real, 672.9 MB
[runlim] sample:		1524.4 time, 830.1 real, 673.0 MB
[runlim] sample:		1544.5 time, 840.1 real, 673.0 MB
[runlim] sample:		1564.4 time, 850.1 real, 673.0 MB
[runlim] sample:		1584.4 time, 860.1 real, 673.0 MB
[runlim] sample:		1604.4 time, 870.1 real, 673.0 MB
[runlim] sample:		1624.4 time, 880.1 real, 673.0 MB
[runlim] sample:		1644.3 time, 890.1 real, 673.0 MB
[runlim] end:			Sat Jan 17 00:08:19 2026
[runlim] status:		out of time
[runlim] result:		2
[runlim] children:		0
[runlim] real:			900.07 seconds
[runlim] time:			1664.19 seconds
[runlim] space:			1390.3 MB
[runlim] samples:		8999
